DIMENSION :23
NODE_COORD_SECTION
1 84.7507589624717 -53.380649808823776
2 -26.087758956371943 -71.18436393692195
3 -80.6805504494519 -7.086989918837034
4 22.822664288576263 -24.7226542032939
5 44.327459656415414 -90.75105893842377
6 -17.323780956597105 -44.686298729340976
7 72.13071285270314 -98.23071920237396
8 91.59035656488999 -0.30404158824906347
9 39.72703084219694 -40.58129866314053
10 -72.09707448509116 -67.61466071429392
11 -49.336077045842664 -74.35005247899812
12 92.99456236790286 79.72995541111527
13 72.23294927629948 8.913646760606667
14 54.051614888002575 -78.82890661327282
15 55.31517374930391 58.32998906831537
16 -3.346359042797431 -77.59250763576779
17 -95.40617254907274 67.85413877424446
18 13.046051496753734 -30.49496950153248
19 68.4516954386826 40.41113092895145
20 9.185084419927307 -68.77145027925333
21 40.722554712894095 -57.10978851099928
22 -47.881202130676904 16.911407492624875
23 70.567287332549 13.552516851832408
EOF
